c FILE: I4.clq
c
c SOURCE: Generated by Breno Maurício de Freitas Viana
c         writed
c
c           Graph Stats
c number of vertices  : 5
c number of edges     : 10
p col 5 10
e 1 2
e 1 3
e 1 4
e 1 5
e 2 3
e 2 4
e 2 5
e 3 4
e 3 5
e 4 5